100 100
33 161
78 135
93 164
74 155
60 74
22 18
56 195
77 198
92 65
3 130
97 84
54 175
62 147
0 134
47 130
85 127
68 139
81 48
84 131
54 170
3 108
96 140
27 37
89 41
47 100
54 27
82 159
33 158
28 104
63 30
7 112
7 121
52 178
54 16
39 160
71 115
88 101
4 37
3 161
67 71
37 108
37 33
95 144
90 148
79 2
54 112
56 63
74 195
74 143
41 143
0 6
67 87
53 19
35 138
24 70
56 5
51 111
45 121
87 2
32 120
26 138
45 136
57 7
22 30
68 48
89 185
38 78
97 25
9 32
73 0
23 15
71 27
44 135
31 90
8 190
61 122
78 89
96 193
23 107
34 17
65 154
7 30
86 147
25 151
60 71
46 169
77 13
34 164
87 109
55 2
91 45
23 22
35 159
43 148
35 134
90 71
73 166
2 118
43 153
61 3
